# DESALINATION LAMMPS INPUT SCRIPT 21 JAN 2016

# For study on effects of different materials on slit membrane. The configuration here is MoS2_2.6 S terminated.
# Results are published at E.Y.M. Ang, T.Y. Ng, J. Yeo, Z. Liu, R. Lin, K.R. Geethalakshmi, 
# Investigations on Different Two-Dimensional Materials as Slit Membranes for Enhanced Desalination, 
# Journal of Membrane Science, 117653 (2019), DOI:https://doi.org/10.1016/j.memsci.2019.117653.

#SETUP

units  real
atom_style      full
boundary p p p

bond_style harmonic
angle_style harmonic
read_data data1.system

#REGIONS AND GROUP DEFINITIONS
#Define piston and membrane regions
variable size_H2O_x equal 113.43
variable start_pos_M equal 3+${size_H2O_x}+3-1.8
variable end_pos_M equal 3+${size_H2O_x}+3+3.241+1.8
region membrane block ${start_pos_M} ${end_pos_M}  0 EDGE 0 EDGE  

#Define feed and permeate regions
region feed block -20 ${start_pos_M} 0 EDGE 0 EDGE units box
region permeate block ${end_pos_M} EDGE 0 EDGE 0 EDGE units box

#Define group
group pistons type 5
group membrane type 6 7
group carbonandmos2 type 5 6 7
group water  type 1 2
group salt   type 3 4
group watermols type 1
group Na type 3
group Cl type 4
group saltandwater type 1 2 3 4
group pistonL id 33507:34342
group pistonR id 34984:35819
group output union saltandwater membrane
group membrane_boundary id 34343 34344 34345 34346 34347 34348 34349 34350 34352 34353 34354 34355 34356 34358 34359 34361 34362 34363 34364 34365 34379 34380 34381 34382 34383 34397 34398 34399 34400 34401 34415 34416 34417 34418 34419 34433 34434 34435 34436 34437 34451 34452 34453 34454 34455 34469 34470 34471 34472 34473 34487 34488 34489 34490 34491 34505 34506 34507 34508 34509 34523 34524 34525 34526 34527 34541 34542 34543 34544 34545 34559 34560 34561 34562 34563 34577 34578 34579 34580 34581 34595 34596 34597 34598 34599 34613 34614 34615 34616 34617 34631 34632 34633 34634 34635 34649 34650 34655 34656 34657 34658 34659 34660 34662 34663 34664 34665 34666 34668 34669 34670 34671 34673


#POTENTIAL MODEL SETTINGS

#settings for TIP3P (long range model):
#pair_style lj/cut/coul/long 10.0 
#pair_coeff 1 1 0.102 3.188  
#pair_coeff 2  2  0.  0.
#pair_coeff 1  2  0.  0.
#bond_style  harmonic
#bond_coeff  1 450 0.9572
#angle_style harmonic
#angle_coeff 1 55 104.52
#kspace_style pppm 1.0e-5 #final npt relaxation

#Settings for TIP4P (long range model)
#Settings for airebo (graphene) and sw (borophene)
pair_style hybrid lj/cut/tip4p/long 1 2 1 1 0.1250 8.5 8.5 lj/cut/coul/long 8.5 8.5 airebo 3.0

pair_modify tail yes

pair_coeff  *  * lj/cut/tip4p/long 0.  0.
pair_coeff  *  * lj/cut/coul/long  0.  0.
pair_coeff * * airebo CH.airebo_real NULL NULL NULL NULL C NULL NULL

pair_coeff 1  1 lj/cut/tip4p/long 0.16275  3.16435
pair_coeff 2  2 lj/cut/tip4p/long 0.  0.
pair_coeff 1  2 lj/cut/tip4p/long 0.  0.
pair_coeff  3  3 lj/cut/coul/long  0.1684 2.452
pair_coeff  1  3 lj/cut/coul/long  0.1656 2.808175
pair_coeff  2  3 lj/cut/coul/long  0.  0.
pair_coeff  4  4 lj/cut/coul/long  0.0117 5.52
pair_coeff  1  4 lj/cut/coul/long  0.043565 4.342175
pair_coeff  2  4 lj/cut/coul/long   0 0
pair_coeff  3  4 lj/cut/coul/long  0.0443 2.808175
#pair_coeff  5  5 lj/cut/coul/long  0.086 3.4
pair_coeff  4  5 lj/cut/coul/long  0.031668 4.46
pair_coeff  3  5 lj/cut/coul/long 0.120356 2.926
pair_coeff  2  5 lj/cut/coul/long  0.  0.
#pair_coeff  1  5 lj/cut/coul/long  0.0850 3.4360
pair_coeff  1  5 lj/cut/coul/long  0.118307 3.282175
pair_coeff 1  6 lj/cut/coul/long  0.273971349 3.147175
pair_coeff 2  6 lj/cut/coul/long  0. 0. 
pair_coeff 3  6  lj/cut/coul/long  0.278686347 2.791
pair_coeff 4  6 lj/cut/coul/long  0.073332067 4.325
pair_coeff  5  6  lj/cut/coul/long  0.19915622 3.265
pair_coeff 1  7 lj/cut/coul/long  0.0468735 3.682175
pair_coeff 2  7 lj/cut/coul/long  0. 0. 
pair_coeff 3  7  lj/cut/coul/long  0.047680185 3.326
pair_coeff 4  7 lj/cut/coul/long  0.012546314 4.86
pair_coeff  5  7  lj/cut/coul/long  0.03407345 3.8


kspace_style pppm/tip4p 1.0e-5

#COMPUTATIONAL SETTINGS

neighbor 2.0 bin
neigh_modify delay 5

#SYSTEM ENERGY MINIMIZATION

velocity saltandwater create 300.0 1929457 rot yes dist gaussian

dump  vmd all xyz 1 saltwater.*.xyz
dump_modify vmd element O H Na Cl C S Mo

fix mos2freeze membrane setforce 0.0 0.0 0.0
minimize 1.0e-4 1.0e-6 10000 10000

undump vmd

thermo_style    custom step temp press vol etotal #v_press0 v_press1 v_press2 v_press3 v_press4 v_press5 v_press6 v_press7    
thermo          100 #output every 50 time steps the thermodynamic data

#EQUILIBRATION OF FLUIDS

unfix mos2freeze
fix carbonmos2freeze1 carbonandmos2 setforce 0.0 0.0 0.0
fix 1 water shake 1e-6 200 0 b 1 a 1
fix 2 all npt temp 300.0 300.0 100.0 iso 1.0 1.0 1000.0


dump  vmd1 all xyz 1000 saltwater.*.xyz
dump_modify vmd1 element O H Na Cl C S Mo

timestep 1
run 250000

write_restart restart.nptequil

unfix 2
fix 2_nvt all nvt temp 300.0 300.0 100.0

timestep 1
run 250000

write_restart restart.nvtequil

unfix carbonmos2freeze1
unfix 1
unfix 2_nvt

#Compute number of water and salt molecules in feed and permeate region
variable num_feed_waters equal "count(watermols,feed)"
variable num_feed_na equal "count(Na,feed)"
variable num_feed_cl equal "count(Cl,feed)"
variable num_perm_waters equal "count(watermols,permeate)" #${num_perm_waters1}+${num_perm_waters2}
variable num_perm_na equal "count(Na,permeate)" #${num_perm_na1}+${num_perm_na2}
variable num_perm_cl equal "count(Cl,permeate)" #${num_perm_cl1}+${num_perm_cl2}
variable num_mem_waters equal "count(watermols,membrane)"
variable num_mem_na equal "count(Na,membrane)"
variable num_mem_cl equal "count(Cl,membrane)"

thermo          100
thermo_style    custom step temp press vol etotal enthalpy pe ke v_num_feed_waters v_num_feed_na v_num_feed_cl v_num_perm_waters v_num_perm_na v_num_perm_cl v_num_mem_waters v_num_mem_na v_num_mem_cl 
fix membranefix membrane setforce 0. 0. 0. 
fix pistonfreeze1 pistons setforce NULL 0. 0.
fix pistonLpush pistonL aveforce 0.1 NULL NULL
fix pistonRpush pistonR aveforce -0.1 NULL NULL
fix 5 water shake 1e-6 200 0 b 1 a 1
fix 6 all nvt temp 300.0 300.0 100.0

timestep 1
run 250000

write_restart restart.compress

unfix membranefix
unfix pistonfreeze1
unfix pistonLpush
unfix pistonRpush
unfix 5
unfix 6
fix membranefix membrane setforce 0. 0. 0.  
fix pistonfreeze2 pistons setforce NULL 0. 0.
fix pistonLpush1 pistonL aveforce 0.2 NULL NULL
fix pistonRpush1 pistonR aveforce -0.1 NULL NULL
fix 7 water shake 1e-6 200 0 b 1 a 1
fix 8 all nvt temp 300.0 300.0 100.0


timestep 1
run 100000

write_restart restart.*.system

timestep 1
run 100000

write_restart restart.*.system


timestep 1
run 100000

write_restart restart.*.system


timestep 1
run 100000

write_restart restart.*.system


timestep 1
run 100000

write_restart restart.*.system


timestep 1
run 100000

write_restart restart.*.system


timestep 1
run 100000

write_restart restart.*.system


timestep 1
run 100000

write_restart restart.*.system


timestep 1
run 100000

write_restart restart.*.system


timestep 1
run 100000

write_restart restart.*.system
