# DESALINATION LAMMPS INPUT SCRIPT 21 JAN 2016

# For study on effects of multilayering for Transverse Flow CNT Membrane. The configuration here is CNT_(5,5)_10_16.
# Results are published at E.Y.M. Ang, T.Y. Ng, J. Yeo, R. Lin, Z. Liu, K.R. Geethalakshmi, 
# Carbon nanotube arrays as multilayer transverse flow carbon nanotube membrane for efficient desalination, 
# Journal of Membrane science, 581, 383-392 (2019). DOI: https://doi.org/10.1016/j.memsci.2019.03.062

#SETUP

units  real
atom_style      full
boundary p p p

bond_style harmonic
angle_style harmonic
read_data data1.system

#REGIONS AND GROUP DEFINITIONS
#Define piston and membrane regions
variable size_H2O_x equal 113.43
variable start_pos_R equal xhi-120
variable start_pos_M equal 3+${size_H2O_x}
variable mem_size equal 6.808*16+6.68*15 
variable end_pos_M equal 3+${size_H2O_x}+3+${mem_size}+3
region pistonL block  0  2  0 EDGE 0 EDGE 
region pistonR block ${start_pos_R} EDGE 0 EDGE 0 EDGE 
region membrane block ${start_pos_M} ${end_pos_M}  0 EDGE 0 EDGE   
#Define feed and permeate regions
region feed block -20 ${start_pos_M} 0 EDGE 0 EDGE units box
region permeate block ${end_pos_M} EDGE 0 EDGE 0 EDGE units box

#Define group
group pistons type 6
group membrane type 5
group carbon type 5 6
group water  type 1 2
group salt   type 3 4
group watermols type 1
group Na type 3
group Cl type 4
group saltandwater type 1 2 3 4
group pistonL id 66057:66949
group pistonR id 82310:83202
group output union saltandwater membrane
group membrane_boundary id 66950 66951 66954 66955 66958 66959 67214 67215 67218 67219 67222 67223 67226 67227 67230 67231 67695 67696 67699 67700 67910 67911 67914 67915 67918 67919 68174 68175 68178 68179 68182 68183 68186 68187 68190 68191 68655 68656 68659 68660 68870 68871 68874 68875 68878 68879 69134 69135 69138 69139 69142 69143 69146 69147 69150 69151 69615 69616 69619 69620 69830 69831 69834 69835 69838 69839 70094 70095 70098 70099 70102 70103 70106 70107 70110 70111 70575 70576 70579 70580 70790 70791 70794 70795 70798 70799 71054 71055 71058 71059 71062 71063 71066 71067 71070 71071 71535 71536 71539 71540 71750 71751 71754 71755 71758 71759 72014 72015 72018 72019 72022 72023 72026 72027 72030 72031 72495 72496 72499 72500 72710 72711 72714 72715 72718 72719 72974 72975 72978 72979 72982 72983 72986 72987 72990 72991 73455 73456 73459 73460 73670 73671 73674 73675 73678 73679 73934 73935 73938 73939 73942 73943 73946 73947 73950 73951 74415 74416 74419 74420 74630 74631 74634 74635 74638 74639 74894 74895 74898 74899 74902 74903 74906 74907 74910 74911 75375 75376 75379 75380 75590 75591 75594 75595 75598 75599 75854 75855 75858 75859 75862 75863 75866 75867 75870 75871 76335 76336 76339 76340 76550 76551 76554 76555 76558 76559 76814 76815 76818 76819 76822 76823 76826 76827 76830 76831 77295 77296 77299 77300 77510 77511 77514 77515 77518 77519 77774 77775 77778 77779 77782 77783 77786 77787 77790 77791 78255 78256 78259 78260 78470 78471 78474 78475 78478 78479 78734 78735 78738 78739 78742 78743 78746 78747 78750 78751 79215 79216 79219 79220 79430 79431 79434 79435 79438 79439 79694 79695 79698 79699 79702 79703 79706 79707 79710 79711 80175 80176 80179 80180 80390 80391 80394 80395 80398 80399 80654 80655 80658 80659 80662 80663 80666 80667 80670 80671 81135 81136 81139 81140 81350 81351 81354 81355 81358 81359 81614 81615 81618 81619 81622 81623 81626 81627 81630 81631 82095 82096 82099 82100


#POTENTIAL MODEL SETTINGS

#settings for TIP3P (long range model):
#pair_style lj/cut/coul/long 10.0 
#pair_coeff 1 1 0.102 3.188  
#pair_coeff 2  2  0.  0.
#pair_coeff 1  2  0.  0.
#bond_style  harmonic
#bond_coeff  1 450 0.9572
#angle_style harmonic
#angle_coeff 1 55 104.52
#kspace_style pppm 1.0e-5 #final npt relaxation

#Settings for TIP4P (long range model)
#Settings for airebo
pair_style hybrid lj/cut/tip4p/long 1 2 1 1 0.1250 8.5 8.5 lj/cut/coul/long 8.5 8.5 airebo 3.0
#Settings for tersoff
#pair_style hybrid lj/cut/tip4p/long 1 2 1 1 0.1250 8.5 lj/cut/coul/long 8.5 tersoff
#Settings for LJ only
#pair_style hybrid lj/cut/tip4p/long 1 2 1 1 0.1250 8.5 lj/cut/coul/long 8.5
pair_modify tail yes

pair_coeff  *  * lj/cut/tip4p/long 0.  0.
pair_coeff  *  * lj/cut/coul/long  0.  0.
pair_coeff * * airebo CH.airebo_real NULL NULL NULL NULL C C
#pair_coeff  *  * tersoff  C.tersoff  NULL NULL NULL NULL C
pair_coeff 1  1 lj/cut/tip4p/long 0.16275  3.16435
pair_coeff 2  2 lj/cut/tip4p/long 0.  0.
pair_coeff 1  2 lj/cut/tip4p/long 0.  0.
pair_coeff  3  3 lj/cut/coul/long  0.1684 2.452
pair_coeff  1  3 lj/cut/coul/long  0.1656 2.808175
pair_coeff  2  3 lj/cut/coul/long  0.  0.
pair_coeff  4  4 lj/cut/coul/long  0.0117 5.52
pair_coeff  1  4 lj/cut/coul/long  0.043565 4.342175
pair_coeff  2  4 lj/cut/coul/long   0 0
pair_coeff  3  4 lj/cut/coul/long  0.0443 2.808175
#pair_coeff  5  5 lj/cut/coul/long  0.086 3.4
pair_coeff  4  5 lj/cut/coul/long  0.031668 4.46
pair_coeff  3  5 lj/cut/coul/long 0.120356 2.926
pair_coeff  2  5 lj/cut/coul/long  0.  0.
#pair_coeff  1  5 lj/cut/coul/long  0.0850 3.4360
pair_coeff  1  5 lj/cut/coul/long  0.118307 3.282175
pair_coeff 1  6 lj/cut/coul/long  0.118307 3.282175
pair_coeff 2  6 lj/cut/coul/long  0. 0. 
pair_coeff 3  6  lj/cut/coul/long  0.120356  2.926
pair_coeff 4  6 lj/cut/coul/long  0.031668 4.46
pair_coeff  5  6  lj/cut/coul/long  0 0
#pair_coeff 6  6  lj/cut/coul/long  0.004295  3.35

kspace_style pppm/tip4p 1.0e-5

#COMPUTATIONAL SETTINGS

neighbor 2.0 bin
neigh_modify delay 5

#SYSTEM ENERGY MINIMIZATION

velocity saltandwater create 300.0 1929457 rot yes dist gaussian

dump  vmd all xyz 1 saltwater.*.xyz
dump_modify vmd element O H Na Cl C C


minimize 1.0e-4 1.0e-6 10000 10000

undump vmd


thermo_style    custom step temp press vol etotal #v_press0 v_press1 v_press2 v_press3 v_press4 v_press5 v_press6 v_press7    
thermo          100 #output every 50 time steps the thermodynamic data

#EQUILIBRATION OF FLUIDS

fix carbonfreeze carbon setforce 0.0 0.0 0.0
fix 1 water shake 1e-6 200 0 b 1 a 1
fix 2 all npt temp 300.0 300.0 100.0 iso 1.0 1.0 1000.0


dump  vmd1 all xyz 1000 saltwater.*.xyz
dump_modify vmd1 element O H Na Cl C C


timestep 1
run 250000

write_restart restart.nptequil

unfix 2
fix 2_nvt all nvt temp 300.0 300.0 100.0

timestep 1
run 250000

write_restart restart.nvtequil

unfix carbonfreeze
unfix 1
unfix 2_nvt

#Compute number of water and salt molecules in feed and permeate region
variable num_feed_waters equal "count(watermols,feed)"
variable num_feed_na equal "count(Na,feed)"
variable num_feed_cl equal "count(Cl,feed)"
variable num_perm_waters equal "count(watermols,permeate)" #${num_perm_waters1}+${num_perm_waters2}
variable num_perm_na equal "count(Na,permeate)" #${num_perm_na1}+${num_perm_na2}
variable num_perm_cl equal "count(Cl,permeate)" #${num_perm_cl1}+${num_perm_cl2}
variable num_mem_waters equal "count(watermols,membrane)"
variable num_mem_na equal "count(Na,membrane)"
variable num_mem_cl equal "count(Cl,membrane)"

thermo          100
thermo_style    custom step temp press vol etotal enthalpy pe ke v_num_feed_waters v_num_feed_na v_num_feed_cl v_num_perm_waters v_num_perm_na v_num_perm_cl v_num_mem_waters v_num_mem_na v_num_mem_cl 
fix membranefix membrane setforce 0. 0. 0. 
fix pistonfreeze1 pistons setforce NULL 0. 0.
fix pistonLpush pistonL aveforce 0.1 NULL NULL
fix pistonRpush pistonR aveforce -0.1 NULL NULL
fix 5 water shake 1e-6 200 0 b 1 a 1
fix 6 all nvt temp 300.0 300.0 100.0

timestep 1
run 250000

write_restart restart.compress

unfix membranefix
unfix pistonfreeze1
unfix pistonLpush
unfix pistonRpush
unfix 5
unfix 6
fix membranefix1 membrane_boundary setforce 0. 0. 0. 
fix pistonfreeze2 pistons setforce NULL 0. 0.
fix pistonLpush1 pistonL aveforce 0.1 NULL NULL
fix pistonRpush1 pistonR aveforce -0.1 NULL NULL
fix 7 water shake 1e-6 200 0 b 1 a 1
fix 8 all nvt temp 300.0 300.0 100.0


timestep 1
run 250000

write_restart restart.compress1

unfix membranefix1 
unfix pistonfreeze2 
unfix pistonLpush1 
unfix pistonRpush1 
unfix 7
unfix 8 
fix membranefix2 membrane_boundary setforce 0. 0. 0. 
fix pistonfreeze3 pistons setforce NULL 0. 0.
fix pistonLpush2 pistonL aveforce 0.2 NULL NULL
fix pistonRpush2 pistonR aveforce -0.1 NULL NULL
fix 9 water shake 1e-6 200 0 b 1 a 1
fix 10 all nvt temp 300.0 300.0 100.0
compute water_vel water chunk/atom bin/1d x 0.0 1.0 units box
fix water_vel_fix water ave/chunk 200 500 100000 water_vel vx vy vz file velocity.out

timestep 1
run 100000

write_restart restart.*.system

timestep 1
run 100000

write_restart restart.*.system

timestep 1
run 100000

write_restart restart.*.system

timestep 1
run 100000

write_restart restart.*.system

timestep 1
run 100000

write_restart restart.*.system

timestep 1
run 100000

write_restart restart.*.system

timestep 1
run 100000

write_restart restart.*.system

timestep 1
run 100000

write_restart restart.*.system

timestep 1
run 100000

write_restart restart.*.system
timestep 1
run 100000

write_restart restart.*.system



timestep 1
run 100000

write_restart restart.*.system

timestep 1
run 100000

write_restart restart.*.system

timestep 1
run 100000

write_restart restart.*.system

timestep 1
run 100000

write_restart restart.*.system

timestep 1
run 100000

write_restart restart.*.system

timestep 1
run 100000

write_restart restart.*.system

timestep 1
run 100000

write_restart restart.*.system

timestep 1
run 100000

write_restart restart.*.system

timestep 1
run 100000

write_restart restart.*.system
timestep 1
run 100000

write_restart restart.*.system




timestep 1
run 100000

write_restart restart.*.system

timestep 1
run 100000

write_restart restart.*.system

timestep 1
run 100000

write_restart restart.*.system

timestep 1
run 100000

write_restart restart.*.system

timestep 1
run 100000

write_restart restart.*.system

timestep 1
run 100000

write_restart restart.*.system

timestep 1
run 100000

write_restart restart.*.system

timestep 1
run 100000

write_restart restart.*.system

timestep 1
run 100000

write_restart restart.*.system
timestep 1
run 100000

write_restart restart.*.system




timestep 1
run 100000

write_restart restart.*.system

timestep 1
run 100000

write_restart restart.*.system

timestep 1
run 100000

write_restart restart.*.system

timestep 1
run 100000

write_restart restart.*.system

timestep 1
run 100000

write_restart restart.*.system

timestep 1
run 100000

write_restart restart.*.system

timestep 1
run 100000

write_restart restart.*.system

timestep 1
run 100000

write_restart restart.*.system

timestep 1
run 100000

write_restart restart.*.system
timestep 1
run 100000

write_restart restart.*.system




timestep 1
run 100000

write_restart restart.*.system

timestep 1
run 100000

write_restart restart.*.system

timestep 1
run 100000

write_restart restart.*.system

timestep 1
run 100000

write_restart restart.*.system

timestep 1
run 100000

write_restart restart.*.system

timestep 1
run 100000

write_restart restart.*.system

timestep 1
run 100000

write_restart restart.*.system

timestep 1
run 100000

write_restart restart.*.system

timestep 1
run 100000

write_restart restart.*.system
timestep 1
run 100000

write_restart restart.*.system





timestep 1
run 100000

write_restart restart.*.system

timestep 1
run 100000

write_restart restart.*.system

timestep 1
run 100000

write_restart restart.*.system

timestep 1
run 100000

write_restart restart.*.system

timestep 1
run 100000

write_restart restart.*.system

timestep 1
run 100000

write_restart restart.*.system

timestep 1
run 100000

write_restart restart.*.system

timestep 1
run 100000

write_restart restart.*.system

timestep 1
run 100000

write_restart restart.*.system
timestep 1
run 100000

write_restart restart.*.system





timestep 1
run 100000

write_restart restart.*.system

timestep 1
run 100000

write_restart restart.*.system

timestep 1
run 100000

write_restart restart.*.system

timestep 1
run 100000

write_restart restart.*.system

timestep 1
run 100000

write_restart restart.*.system

timestep 1
run 100000

write_restart restart.*.system

timestep 1
run 100000

write_restart restart.*.system

timestep 1
run 100000

write_restart restart.*.system

timestep 1
run 100000

write_restart restart.*.system
timestep 1
run 100000

write_restart restart.*.system



timestep 1
run 100000

write_restart restart.*.system

timestep 1
run 100000

write_restart restart.*.system

timestep 1
run 100000

write_restart restart.*.system

timestep 1
run 100000

write_restart restart.*.system

timestep 1
run 100000

write_restart restart.*.system

timestep 1
run 100000

write_restart restart.*.system

timestep 1
run 100000

write_restart restart.*.system

timestep 1
run 100000

write_restart restart.*.system

timestep 1
run 100000

write_restart restart.*.system
timestep 1
run 100000

write_restart restart.*.system




timestep 1
run 100000

write_restart restart.*.system

timestep 1
run 100000

write_restart restart.*.system

timestep 1
run 100000

write_restart restart.*.system

timestep 1
run 100000

write_restart restart.*.system

timestep 1
run 100000

write_restart restart.*.system

timestep 1
run 100000

write_restart restart.*.system

timestep 1
run 100000

write_restart restart.*.system

timestep 1
run 100000

write_restart restart.*.system

timestep 1
run 100000

write_restart restart.*.system
timestep 1
run 100000

write_restart restart.*.system




timestep 1
run 100000

write_restart restart.*.system

timestep 1
run 100000

write_restart restart.*.system

timestep 1
run 100000

write_restart restart.*.system

timestep 1
run 100000

write_restart restart.*.system

timestep 1
run 100000

write_restart restart.*.system

timestep 1
run 100000

write_restart restart.*.system

timestep 1
run 100000

write_restart restart.*.system

timestep 1
run 100000

write_restart restart.*.system

timestep 1
run 100000

write_restart restart.*.system
timestep 1
run 100000

write_restart restart.*.system





timestep 1
run 100000

write_restart restart.*.system

timestep 1
run 100000

write_restart restart.*.system

timestep 1
run 100000

write_restart restart.*.system

timestep 1
run 100000

write_restart restart.*.system

timestep 1
run 100000

write_restart restart.*.system

timestep 1
run 100000

write_restart restart.*.system

timestep 1
run 100000

write_restart restart.*.system

timestep 1
run 100000

write_restart restart.*.system

timestep 1
run 100000

write_restart restart.*.system
timestep 1
run 100000

write_restart restart.*.system





timestep 1
run 100000

write_restart restart.*.system

timestep 1
run 100000

write_restart restart.*.system

timestep 1
run 100000

write_restart restart.*.system

timestep 1
run 100000

write_restart restart.*.system

timestep 1
run 100000

write_restart restart.*.system

timestep 1
run 100000

write_restart restart.*.system

timestep 1
run 100000

write_restart restart.*.system

timestep 1
run 100000

write_restart restart.*.system

timestep 1
run 100000

write_restart restart.*.system
timestep 1
run 100000

write_restart restart.*.system

timestep 1
run 100000

write_restart restart.*.system

timestep 1
run 100000

write_restart restart.*.system

timestep 1
run 100000

write_restart restart.*.system

timestep 1
run 100000

write_restart restart.*.system

timestep 1
run 100000

write_restart restart.*.system

timestep 1
run 100000

write_restart restart.*.system

timestep 1
run 100000

write_restart restart.*.system

timestep 1
run 100000

write_restart restart.*.system

timestep 1
run 100000

write_restart restart.*.system
timestep 1
run 100000

write_restart restart.*.system



timestep 1
run 100000

write_restart restart.*.system

timestep 1
run 100000

write_restart restart.*.system

timestep 1
run 100000

write_restart restart.*.system

timestep 1
run 100000

write_restart restart.*.system

timestep 1
run 100000

write_restart restart.*.system

timestep 1
run 100000

write_restart restart.*.system

timestep 1
run 100000

write_restart restart.*.system

timestep 1
run 100000

write_restart restart.*.system

timestep 1
run 100000

write_restart restart.*.system
timestep 1
run 100000

write_restart restart.*.system




timestep 1
run 100000

write_restart restart.*.system

timestep 1
run 100000

write_restart restart.*.system

timestep 1
run 100000

write_restart restart.*.system

timestep 1
run 100000

write_restart restart.*.system

timestep 1
run 100000

write_restart restart.*.system

timestep 1
run 100000

write_restart restart.*.system

timestep 1
run 100000

write_restart restart.*.system

timestep 1
run 100000

write_restart restart.*.system

timestep 1
run 100000

write_restart restart.*.system
timestep 1
run 100000

write_restart restart.*.system


