# DESALINATION LAMMPS INPUT SCRIPT 21 JAN 2016

#SETUP

units  real
atom_style      full
boundary p p p

bond_style harmonic
angle_style harmonic
read_data data1.system

#REGIONS AND GROUP DEFINITIONS
#Define piston and membrane regions
variable size_H2O_x equal 113.43
variable start_pos_M equal 3+${size_H2O_x}+3-2.15
variable end_pos_M equal 3+${size_H2O_x}+3+4.77+2.15
region membrane block ${start_pos_M} ${end_pos_M}  0 EDGE 0 EDGE  

#Define feed and permeate regions
region feed block -20 ${start_pos_M} 0 EDGE 0 EDGE units box
region permeate block ${end_pos_M} EDGE 0 EDGE 0 EDGE units box

#Define group
group pistons type 5
group membrane type 6 7 8
group carbonandmxene type 5 6 7 8
group water  type 1 2
group salt   type 3 4
group watermols type 1
group Na type 3
group Cl type 4
group saltandwater type 1 2 3 4
group pistonL id 28817:29542
group pistonR id 30543:31268
group output union saltandwater membrane
group membrane_boundary id 29543 29544 29545 29546 29547 29548 29549 29550 29551 29552 29553 29554 29555 29556 29557 29558 29559 29560 29561 29562 29563 29564 29565 29566 29567 29568 29569 29570 29571 29575 29593 29594 29595 29596 29597 29618 29619 29620 29621 29625 29643 29644 29645 29646 29647 29668 29669 29670 29671 29675 29693 29694 29695 29696 29697 29718 29719 29720 29721 29725 29743 29744 29745 29746 29747 29768 29769 29770 29771 29775 29793 29794 29795 29796 29797 29818 29819 29820 29821 29825 29843 29844 29845 29846 29847 29868 29869 29870 29871 29875 29893 29894 29895 29896 29897 29918 29919 29920 29921 29925 29943 29944 29945 29946 29947 29968 29969 29970 29971 29975 29993 29994 29995 29996 29997 30018 30019 30020 30021 30025 30043 30044 30045 30046 30047 30048 30049 30050 30051 30052 30053 30054 30055 30056 30057 30058 30059 30060 30061 30062 30063 30064 30065 30066 30067


#POTENTIAL MODEL SETTINGS

#settings for TIP3P (long range model):
#pair_style lj/cut/coul/long 10.0 
#pair_coeff 1 1 0.102 3.188  
#pair_coeff 2  2  0.  0.
#pair_coeff 1  2  0.  0.
#bond_style  harmonic
#bond_coeff  1 450 0.9572
#angle_style harmonic
#angle_coeff 1 55 104.52
#kspace_style pppm 1.0e-5 #final npt relaxation

#Settings for TIP4P (long range model)
#Settings for airebo (graphene) and sw (borophene)
pair_style hybrid lj/cut/tip4p/long 1 2 1 1 0.1250 8.5 8.5 lj/cut/coul/long 8.5 8.5 airebo 3.0

pair_modify tail yes

pair_coeff  *  * lj/cut/tip4p/long 0.  0.
pair_coeff  *  * lj/cut/coul/long  0.  0.
pair_coeff * * airebo CH.airebo_real NULL NULL NULL NULL C NULL NULL NULL

pair_coeff 1  1 lj/cut/tip4p/long 0.16275  3.16435
pair_coeff 2  2 lj/cut/tip4p/long 0.  0.
pair_coeff 1  2 lj/cut/tip4p/long 0.  0.
pair_coeff  3  3 lj/cut/coul/long  0.1684 2.452
pair_coeff  1  3 lj/cut/coul/long  0.1656 2.808175
pair_coeff  2  3 lj/cut/coul/long  0.  0.
pair_coeff  4  4 lj/cut/coul/long  0.0117 5.52
pair_coeff  1  4 lj/cut/coul/long  0.043565 4.342175
pair_coeff  2  4 lj/cut/coul/long   0 0
pair_coeff  3  4 lj/cut/coul/long  0.0443 2.808175
#pair_coeff  5  5 lj/cut/coul/long  0.086 3.4
pair_coeff  4  5 lj/cut/coul/long  0.031668 4.46
pair_coeff  3  5 lj/cut/coul/long 0.120356 2.926
pair_coeff  2  5 lj/cut/coul/long  0.  0.
#pair_coeff  1  5 lj/cut/coul/long  0.0850 3.4360
pair_coeff  1  5 lj/cut/coul/long  0.118307 3.282175
pair_coeff 1  6 lj/cut/coul/long  0.052599905 2.9964765
pair_coeff 2  6 lj/cut/coul/long  0. 0. 
pair_coeff 3  6  lj/cut/coul/long  0.05350514 2.6403015
pair_coeff 4  6 lj/cut/coul/long  0.014079062 4.1743015
pair_coeff  5  6  lj/cut/coul/long  0.038236109 3.1143015
pair_coeff 1  7 lj/cut/coul/long  0.130723946 3.2976005
pair_coeff 2  7 lj/cut/coul/long  0. 0. 
pair_coeff 3  7  lj/cut/coul/long  0.132973682 2.9414255
pair_coeff 4  7 lj/cut/coul/long  0.034989999 4.4754255
pair_coeff  5  7  lj/cut/coul/long  0.095026312 3.4154255
pair_coeff 1  8 lj/cut/coul/long  0.090208093 3.0806665
pair_coeff 2  8 lj/cut/coul/long  0. 0. 
pair_coeff 3  8  lj/cut/coul/long  0.091760558 2.7244915
pair_coeff 4  8 lj/cut/coul/long  0.024145393 4.2584915
pair_coeff  5  8  lj/cut/coul/long  0.065574385 3.1984915


kspace_style pppm/tip4p 1.0e-5

#COMPUTATIONAL SETTINGS

neighbor 2.0 bin
neigh_modify delay 5

#SYSTEM ENERGY MINIMIZATION

velocity saltandwater create 300.0 1929457 rot yes dist gaussian

dump  vmd all xyz 1 saltwater.*.xyz
dump_modify vmd element O H Na Cl C Ti C F

fix mxenefreeze membrane setforce 0.0 0.0 0.0
minimize 1.0e-4 1.0e-6 10000 10000

undump vmd

thermo_style    custom step temp press vol etotal #v_press0 v_press1 v_press2 v_press3 v_press4 v_press5 v_press6 v_press7    
thermo          100 #output every 50 time steps the thermodynamic data

#EQUILIBRATION OF FLUIDS

unfix mxenefreeze
fix carbonmxenefreeze1 carbonandmxene setforce 0.0 0.0 0.0
fix 1 water shake 1e-6 200 0 b 1 a 1
fix 2 all npt temp 300.0 300.0 100.0 iso 1.0 1.0 1000.0


dump  vmd1 all xyz 1000 saltwater.*.xyz
dump_modify vmd1 element O H Na Cl C Ti C F


timestep 1
run 250000

write_restart restart.nptequil

unfix 2
fix 2_nvt all nvt temp 300.0 300.0 100.0

timestep 1
run 250000

write_restart restart.nvtequil

unfix carbonmxenefreeze1
unfix 1
unfix 2_nvt

#Compute number of water and salt molecules in feed and permeate region
variable num_feed_waters equal "count(watermols,feed)"
variable num_feed_na equal "count(Na,feed)"
variable num_feed_cl equal "count(Cl,feed)"
variable num_perm_waters equal "count(watermols,permeate)" #${num_perm_waters1}+${num_perm_waters2}
variable num_perm_na equal "count(Na,permeate)" #${num_perm_na1}+${num_perm_na2}
variable num_perm_cl equal "count(Cl,permeate)" #${num_perm_cl1}+${num_perm_cl2}
variable num_mem_waters equal "count(watermols,membrane)"
variable num_mem_na equal "count(Na,membrane)"
variable num_mem_cl equal "count(Cl,membrane)"

thermo          100
thermo_style    custom step temp press vol etotal enthalpy pe ke v_num_feed_waters v_num_feed_na v_num_feed_cl v_num_perm_waters v_num_perm_na v_num_perm_cl v_num_mem_waters v_num_mem_na v_num_mem_cl 
fix membranefix membrane setforce 0. 0. 0. 
fix pistonfreeze1 pistons setforce NULL 0. 0.
fix pistonLpush pistonL aveforce 0.1 NULL NULL
fix pistonRpush pistonR aveforce -0.1 NULL NULL
fix 5 water shake 1e-6 200 0 b 1 a 1
fix 6 all nvt temp 300.0 300.0 100.0

timestep 1
run 250000

write_restart restart.compress

unfix membranefix
unfix pistonfreeze1
unfix pistonLpush
unfix pistonRpush
unfix 5
unfix 6
fix membranefix membrane setforce 0. 0. 0.  
fix pistonfreeze2 pistons setforce NULL 0. 0.
fix pistonLpush1 pistonL aveforce 0.2 NULL NULL
fix pistonRpush1 pistonR aveforce -0.1 NULL NULL
fix 7 water shake 1e-6 200 0 b 1 a 1
fix 8 all nvt temp 300.0 300.0 100.0


timestep 1
run 100000

write_restart restart.*.system

timestep 1
run 100000

write_restart restart.*.system


timestep 1
run 100000

write_restart restart.*.system


timestep 1
run 100000

write_restart restart.*.system


timestep 1
run 100000

write_restart restart.*.system


timestep 1
run 100000

write_restart restart.*.system


timestep 1
run 100000

write_restart restart.*.system


timestep 1
run 100000

write_restart restart.*.system


timestep 1
run 100000

write_restart restart.*.system


timestep 1
run 100000

write_restart restart.*.system





timestep 1
run 100000

write_restart restart.*.system

timestep 1
run 100000

write_restart restart.*.system


timestep 1
run 100000

write_restart restart.*.system


timestep 1
run 100000

write_restart restart.*.system


timestep 1
run 100000

write_restart restart.*.system


timestep 1
run 100000

write_restart restart.*.system


timestep 1
run 100000

write_restart restart.*.system


timestep 1
run 100000

write_restart restart.*.system


timestep 1
run 100000

write_restart restart.*.system


timestep 1
run 100000

write_restart restart.*.system






timestep 1
run 100000

write_restart restart.*.system

timestep 1
run 100000

write_restart restart.*.system


timestep 1
run 100000

write_restart restart.*.system


timestep 1
run 100000

write_restart restart.*.system


timestep 1
run 100000

write_restart restart.*.system


timestep 1
run 100000

write_restart restart.*.system


timestep 1
run 100000

write_restart restart.*.system


timestep 1
run 100000

write_restart restart.*.system


timestep 1
run 100000

write_restart restart.*.system


timestep 1
run 100000

write_restart restart.*.system





timestep 1
run 100000

write_restart restart.*.system

timestep 1
run 100000

write_restart restart.*.system


timestep 1
run 100000

write_restart restart.*.system


timestep 1
run 100000

write_restart restart.*.system


timestep 1
run 100000

write_restart restart.*.system


timestep 1
run 100000

write_restart restart.*.system


timestep 1
run 100000

write_restart restart.*.system


timestep 1
run 100000

write_restart restart.*.system


timestep 1
run 100000

write_restart restart.*.system


timestep 1
run 100000

write_restart restart.*.system





timestep 1
run 100000

write_restart restart.*.system

timestep 1
run 100000

write_restart restart.*.system


timestep 1
run 100000

write_restart restart.*.system


timestep 1
run 100000

write_restart restart.*.system


timestep 1
run 100000

write_restart restart.*.system


timestep 1
run 100000

write_restart restart.*.system


timestep 1
run 100000

write_restart restart.*.system


timestep 1
run 100000

write_restart restart.*.system


timestep 1
run 100000

write_restart restart.*.system


timestep 1
run 100000

write_restart restart.*.system